param n := 30;
param m := 3;


param p :=
1	265
2	400
3	435
4	245
5	155
6	230
7	75
8	60
9	80
10	90
11	70
12	65
13	70
14	60
15	75
16	65
17	70
18	65
19	70
20	165
21	150
22	145
23	90
24	120
25	80
26	70
27	130
28	140
29	95
30	95
;
